c colouring generated by benchmark framework
p edge 385 19095
v 1 10
v 2 15
v 3 2
v 4 14
v 5 11
v 6 0
v 7 18
v 8 6
v 9 5
v 10 19
v 11 21
v 12 4
v 13 1
v 14 34
v 15 10
v 16 28
v 17 5
v 18 39
v 19 2
v 20 0
v 21 9
v 22 23
v 23 33
v 24 11
v 25 25
v 26 40
v 27 1
v 28 20
v 29 22
v 30 28
v 31 38
v 32 34
v 33 16
v 34 19
v 35 2
v 36 5
v 37 9
v 38 19
v 39 6
v 40 37
v 41 15
v 42 30
v 43 44
v 44 26
v 45 11
v 46 13
v 47 12
v 48 10
v 49 13
v 50 7
v 51 4
v 52 43
v 53 17
v 54 6
v 55 7
v 56 3
v 57 20
v 58 22
v 59 13
v 60 1
v 61 6
v 62 30
v 63 21
v 64 18
v 65 11
v 66 43
v 67 25
v 68 12
v 69 10
v 70 33
v 71 31
v 72 18
v 73 23
v 74 3
v 75 2
v 76 16
v 77 1
v 78 29
v 79 19
v 80 24
v 81 26
v 82 1
v 83 9
v 84 3
v 85 5
v 86 29
v 87 17
v 88 12
v 89 22
v 90 33
v 91 27
v 92 38
v 93 13
v 94 37
v 95 7
v 96 0
v 97 12
v 98 17
v 99 2
v 100 29
v 101 18
v 102 28
v 103 1
v 104 36
v 105 42
v 106 40
v 107 26
v 108 26
v 109 0
v 110 5
v 111 3
v 112 2
v 113 36
v 114 13
v 115 9
v 116 7
v 117 8
v 118 4
v 119 6
v 120 35
v 121 2
v 122 23
v 123 26
v 124 16
v 125 11
v 126 6
v 127 5
v 128 43
v 129 21
v 130 12
v 131 19
v 132 38
v 133 0
v 134 13
v 135 4
v 136 26
v 137 31
v 138 43
v 139 18
v 140 12
v 141 32
v 142 5
v 143 29
v 144 33
v 145 11
v 146 19
v 147 18
v 148 6
v 149 8
v 150 24
v 151 39
v 152 3
v 153 40
v 154 17
v 155 0
v 156 4
v 157 14
v 158 5
v 159 10
v 160 5
v 161 2
v 162 16
v 163 21
v 164 1
v 165 4
v 166 24
v 167 20
v 168 0
v 169 43
v 170 8
v 171 6
v 172 25
v 173 26
v 174 31
v 175 29
v 176 39
v 177 8
v 178 3
v 179 34
v 180 26
v 181 30
v 182 16
v 183 23
v 184 28
v 185 25
v 186 0
v 187 31
v 188 42
v 189 12
v 190 9
v 191 23
v 192 4
v 193 18
v 194 43
v 195 1
v 196 8
v 197 9
v 198 4
v 199 19
v 200 9
v 201 8
v 202 27
v 203 41
v 204 2
v 205 26
v 206 22
v 207 25
v 208 34
v 209 4
v 210 8
v 211 18
v 212 26
v 213 1
v 214 10
v 215 11
v 216 8
v 217 14
v 218 11
v 219 1
v 220 14
v 221 3
v 222 17
v 223 12
v 224 14
v 225 19
v 226 1
v 227 7
v 228 2
v 229 3
v 230 27
v 231 2
v 232 5
v 233 1
v 234 0
v 235 3
v 236 43
v 237 37
v 238 44
v 239 8
v 240 4
v 241 13
v 242 5
v 243 21
v 244 27
v 245 2
v 246 1
v 247 13
v 248 12
v 249 10
v 250 3
v 251 17
v 252 20
v 253 8
v 254 11
v 255 35
v 256 20
v 257 37
v 258 31
v 259 5
v 260 11
v 261 0
v 262 12
v 263 3
v 264 23
v 265 8
v 266 19
v 267 25
v 268 42
v 269 12
v 270 10
v 271 25
v 272 17
v 273 31
v 274 16
v 275 6
v 276 30
v 277 6
v 278 29
v 279 36
v 280 7
v 281 6
v 282 30
v 283 21
v 284 9
v 285 9
v 286 28
v 287 13
v 288 1
v 289 25
v 290 12
v 291 24
v 292 19
v 293 12
v 294 27
v 295 0
v 296 26
v 297 10
v 298 7
v 299 23
v 300 32
v 301 6
v 302 38
v 303 24
v 304 10
v 305 23
v 306 6
v 307 42
v 308 4
v 309 0
v 310 29
v 311 16
v 312 36
v 313 1
v 314 26
v 315 2
v 316 8
v 317 7
v 318 9
v 319 10
v 320 27
v 321 16
v 322 28
v 323 26
v 324 22
v 325 14
v 326 0
v 327 5
v 328 2
v 329 3
v 330 4
v 331 41
v 332 33
v 333 16
v 334 42
v 335 34
v 336 18
v 337 17
v 338 8
v 339 5
v 340 14
v 341 22
v 342 13
v 343 1
v 344 2
v 345 38
v 346 1
v 347 30
v 348 2
v 349 40
v 350 7
v 351 3
v 352 18
v 353 0
v 354 32
v 355 1
v 356 41
v 357 4
v 358 16
v 359 2
v 360 0
v 361 9
v 362 28
v 363 44
v 364 20
v 365 24
v 366 13
v 367 25
v 368 12
v 369 10
v 370 15
v 371 18
v 372 7
v 373 14
v 374 15
v 375 21
v 376 32
v 377 1
v 378 32
v 379 5
v 380 27
v 381 12
v 382 34
v 383 33
v 384 22
v 385 36
